c nombre: 26
c densidad: 0.5
p edges 50 616
e 1 4
e 1 6
e 1 7
e 1 9
e 1 11
e 1 15
e 1 16
e 1 18
e 1 20
e 1 22
e 1 23
e 1 24
e 1 25
e 1 26
e 1 27
e 1 31
e 1 35
e 1 36
e 1 37
e 1 43
e 1 44
e 1 46
e 1 48
e 1 49
e 1 50
e 2 5
e 2 7
e 2 9
e 2 10
e 2 11
e 2 13
e 2 14
e 2 17
e 2 18
e 2 20
e 2 24
e 2 26
e 2 28
e 2 29
e 2 30
e 2 32
e 2 35
e 2 36
e 2 38
e 2 45
e 2 47
e 2 48
e 2 50
e 3 6
e 3 8
e 3 12
e 3 14
e 3 15
e 3 16
e 3 19
e 3 23
e 3 24
e 3 25
e 3 26
e 3 27
e 3 29
e 3 31
e 3 32
e 3 36
e 3 38
e 3 40
e 3 42
e 3 48
e 3 50
e 4 6
e 4 8
e 4 11
e 4 14
e 4 19
e 4 22
e 4 23
e 4 25
e 4 28
e 4 34
e 4 38
e 4 40
e 4 42
e 4 45
e 4 47
e 4 48
e 4 49
e 5 7
e 5 11
e 5 14
e 5 15
e 5 16
e 5 17
e 5 18
e 5 19
e 5 20
e 5 25
e 5 26
e 5 28
e 5 29
e 5 30
e 5 36
e 5 38
e 5 39
e 5 40
e 5 41
e 5 42
e 5 43
e 5 47
e 5 50
e 6 7
e 6 8
e 6 10
e 6 11
e 6 12
e 6 13
e 6 14
e 6 16
e 6 17
e 6 18
e 6 20
e 6 21
e 6 25
e 6 27
e 6 28
e 6 29
e 6 30
e 6 34
e 6 35
e 6 36
e 6 37
e 6 38
e 6 43
e 6 48
e 6 49
e 7 9
e 7 11
e 7 12
e 7 14
e 7 17
e 7 18
e 7 21
e 7 23
e 7 24
e 7 27
e 7 29
e 7 34
e 7 36
e 7 37
e 7 38
e 7 39
e 7 42
e 7 43
e 7 44
e 7 45
e 7 48
e 7 50
e 8 9
e 8 11
e 8 12
e 8 13
e 8 16
e 8 17
e 8 19
e 8 20
e 8 22
e 8 23
e 8 24
e 8 30
e 8 31
e 8 35
e 8 38
e 8 39
e 8 40
e 8 41
e 8 42
e 8 43
e 8 46
e 8 47
e 8 48
e 8 49
e 9 11
e 9 13
e 9 14
e 9 19
e 9 20
e 9 24
e 9 25
e 9 26
e 9 27
e 9 29
e 9 32
e 9 34
e 9 35
e 9 36
e 9 37
e 9 41
e 9 44
e 9 47
e 9 49
e 9 50
e 10 12
e 10 13
e 10 17
e 10 19
e 10 20
e 10 22
e 10 26
e 10 28
e 10 30
e 10 31
e 10 32
e 10 35
e 10 38
e 10 39
e 10 42
e 10 44
e 10 49
e 10 50
e 11 12
e 11 14
e 11 15
e 11 18
e 11 19
e 11 20
e 11 21
e 11 23
e 11 24
e 11 25
e 11 26
e 11 30
e 11 31
e 11 33
e 11 36
e 11 37
e 11 38
e 11 39
e 11 40
e 11 47
e 11 49
e 11 50
e 12 14
e 12 16
e 12 18
e 12 19
e 12 20
e 12 21
e 12 24
e 12 25
e 12 29
e 12 30
e 12 34
e 12 35
e 12 38
e 12 39
e 12 41
e 12 42
e 12 43
e 12 44
e 12 46
e 12 47
e 12 48
e 12 49
e 12 50
e 13 15
e 13 17
e 13 19
e 13 20
e 13 23
e 13 24
e 13 27
e 13 28
e 13 29
e 13 32
e 13 33
e 13 35
e 13 37
e 13 38
e 13 39
e 13 40
e 13 41
e 13 43
e 13 47
e 14 15
e 14 17
e 14 20
e 14 22
e 14 23
e 14 26
e 14 29
e 14 30
e 14 32
e 14 35
e 14 39
e 14 40
e 14 43
e 14 44
e 14 45
e 14 46
e 14 47
e 14 50
e 15 16
e 15 17
e 15 18
e 15 19
e 15 20
e 15 21
e 15 24
e 15 26
e 15 30
e 15 31
e 15 33
e 15 35
e 15 36
e 15 37
e 15 41
e 15 44
e 15 47
e 15 48
e 16 17
e 16 19
e 16 20
e 16 23
e 16 24
e 16 29
e 16 30
e 16 31
e 16 32
e 16 33
e 16 34
e 16 35
e 16 37
e 16 41
e 16 42
e 16 43
e 16 44
e 16 46
e 16 47
e 16 49
e 16 50
e 17 20
e 17 22
e 17 25
e 17 26
e 17 28
e 17 29
e 17 30
e 17 40
e 17 42
e 17 44
e 17 45
e 17 46
e 17 47
e 18 21
e 18 22
e 18 23
e 18 25
e 18 26
e 18 27
e 18 28
e 18 29
e 18 30
e 18 31
e 18 32
e 18 34
e 18 42
e 18 44
e 18 48
e 18 50
e 19 21
e 19 22
e 19 23
e 19 25
e 19 26
e 19 30
e 19 32
e 19 33
e 19 37
e 19 39
e 19 41
e 19 45
e 19 46
e 19 47
e 19 48
e 19 50
e 20 21
e 20 23
e 20 29
e 20 32
e 20 35
e 20 36
e 20 37
e 20 38
e 20 39
e 20 41
e 20 42
e 20 43
e 20 45
e 20 47
e 20 48
e 20 49
e 20 50
e 21 22
e 21 24
e 21 26
e 21 34
e 21 35
e 21 36
e 21 37
e 21 43
e 21 44
e 21 45
e 21 46
e 21 47
e 21 49
e 21 50
e 22 26
e 22 29
e 22 31
e 22 32
e 22 33
e 22 34
e 22 37
e 22 39
e 22 42
e 22 43
e 22 44
e 22 47
e 22 48
e 23 25
e 23 27
e 23 31
e 23 32
e 23 34
e 23 36
e 23 39
e 23 41
e 23 43
e 23 45
e 23 46
e 23 47
e 23 49
e 24 26
e 24 28
e 24 31
e 24 32
e 24 34
e 24 36
e 24 37
e 24 39
e 24 41
e 24 44
e 24 45
e 24 47
e 24 48
e 25 27
e 25 28
e 25 30
e 25 31
e 25 32
e 25 35
e 25 37
e 25 38
e 25 39
e 25 40
e 25 41
e 25 42
e 25 44
e 25 45
e 25 46
e 25 47
e 25 48
e 25 49
e 25 50
e 26 28
e 26 30
e 26 31
e 26 32
e 26 33
e 26 34
e 26 37
e 26 39
e 26 40
e 26 42
e 26 47
e 26 49
e 27 28
e 27 30
e 27 31
e 27 33
e 27 36
e 27 39
e 27 43
e 27 45
e 27 46
e 27 47
e 27 48
e 27 49
e 27 50
e 28 29
e 28 32
e 28 35
e 28 40
e 28 43
e 28 44
e 28 45
e 28 47
e 28 49
e 28 50
e 29 30
e 29 32
e 29 33
e 29 34
e 29 35
e 29 40
e 29 43
e 29 44
e 29 46
e 29 47
e 29 50
e 30 33
e 30 37
e 30 39
e 30 41
e 30 42
e 30 43
e 30 47
e 30 48
e 30 49
e 31 34
e 31 35
e 31 36
e 31 37
e 31 38
e 31 39
e 31 40
e 31 41
e 31 42
e 31 50
e 32 33
e 32 35
e 32 39
e 32 47
e 32 50
e 33 34
e 33 36
e 33 37
e 33 38
e 33 39
e 33 43
e 33 44
e 33 47
e 33 48
e 33 50
e 34 35
e 34 37
e 34 40
e 34 42
e 34 44
e 34 45
e 35 36
e 35 39
e 35 43
e 35 45
e 35 47
e 35 49
e 35 50
e 36 37
e 36 41
e 36 47
e 36 48
e 37 39
e 37 40
e 37 42
e 37 49
e 37 50
e 38 39
e 38 41
e 38 44
e 38 45
e 38 48
e 38 49
e 39 43
e 39 46
e 39 47
e 39 49
e 39 50
e 40 44
e 40 45
e 40 47
e 40 48
e 40 50
e 41 43
e 41 45
e 41 47
e 41 48
e 42 46
e 42 48
e 42 49
e 42 50
e 43 44
e 43 45
e 43 46
e 43 50
e 44 46
e 44 47
e 44 48
e 45 46
e 45 47
e 45 48
e 45 49
e 46 49
e 46 50
e 47 48
e 47 50
e 48 50
e 49 50
